MINIMIZE
x010 + x011 + x012 + x013 + x020 + x021 + x022 + x023 + x030 + x031 + x032 + x033 + x040 + x041 + x042 + x043 + x050 + x051 + x052 + x053 + x060 + x061 + x062 + x063 + x070 + x071 + x072 + x073 + x100 + 
x101 + x102 + x103 + x120 + x121 + x122 + x123 + x130 + x131 + x132 + x133 + x140 + x141 + x142 + x143 + x150 + x151 + x152 + x153 + x160 + x161 + x162 + x163 + x170 + x171 + x172 + x173 + x200 + x201 + 
x202 + x203 + x210 + x211 + x212 + x213 + x230 + x231 + x232 + x233 + x240 + x241 + x242 + x243 + x250 + x251 + x252 + x253 + x260 + x261 + x262 + x263 + x270 + x271 + x272 + x273 + x300 + x301 + x302 + 
x303 + x310 + x311 + x312 + x313 + x320 + x321 + x322 + x323 + x340 + x341 + x342 + x343 + x350 + x351 + x352 + x353 + x360 + x361 + x362 + x363 + x370 + x371 + x372 + x373 + x400 + x401 + x402 + x403 + 
x410 + x411 + x412 + x413 + x420 + x421 + x422 + x423 + x430 + x431 + x432 + x433 + x450 + x451 + x452 + x453 + x460 + x461 + x462 + x463 + x470 + x471 + x472 + x473 + x500 + x501 + x502 + x503 + x510 + 
x511 + x512 + x513 + x520 + x521 + x522 + x523 + x530 + x531 + x532 + x533 + x540 + x541 + x542 + x543 + x560 + x561 + x562 + x563 + x570 + x571 + x572 + x573 + x600 + x601 + x602 + x603 + x610 + x611 + 
x612 + x613 + x620 + x621 + x622 + x623 + x630 + x631 + x632 + x633 + x640 + x641 + x642 + x643 + x650 + x651 + x652 + x653 + x670 + x671 + x672 + x673 + x700 + x701 + x702 + x703 + x710 + x711 + x712 + 
x713 + x720 + x721 + x722 + x723 + x730 + x731 + x732 + x733 + x740 + x741 + x742 + x743 + x750 + x751 + x752 + x753 + x760 + x761 + x762 + x763
SUBJECT TO
x100 = 1
x120 = 1
x130 = 1
x140 = 1
x150 = 1
x160 = 1
x170 = 1
x101 = 1
x121 = 1
x131 = 1
x141 = 1
x151 = 1
x161 = 1
x171 = 1
x102 = 1
x122 = 1
x132 = 1
x142 = 1
x152 = 1
x162 = 1
x172 = 1
x103 = 1
x123 = 1
x133 = 1
x143 = 1
x153 = 1
x163 = 1
x173 = 1
x200 = 1
x210 = 1
x230 = 1
x240 = 1
x250 = 1
x260 = 1
x270 = 1
x201 = 1
x211 = 1
x231 = 1
x241 = 1
x251 = 1
x261 = 1
x271 = 1
x202 = 1
x212 = 1
x232 = 1
x242 = 1
x252 = 1
x262 = 1
x272 = 1
x203 = 1
x213 = 1
x233 = 1
x243 = 1
x253 = 1
x263 = 1
x273 = 1

BINARY
x010 x011 x012 x013 x020 x021 x022 x023 x030 x031 x032 x033 x040 x041 x042 x043 x050 x051 x052 x053 x060 x061 x062 x063 x070 x071 x072 x073 x100 x101 x102 x103 x120 x121 x122 x123 x130 x131 x132 x133 x140 
x141 x142 x143 x150 x151 x152 x153 x160 x161 x162 x163 x170 x171 x172 x173 x200 x201 x202 x203 x210 x211 x212 x213 x230 x231 x232 x233 x240 x241 x242 x243 x250 x251 x252 x253 x260 x261 x262 x263 x270 x271 
x272 x273 x300 x301 x302 x303 x310 x311 x312 x313 x320 x321 x322 x323 x340 x341 x342 x343 x350 x351 x352 x353 x360 x361 x362 x363 x370 x371 x372 x373 x400 x401 x402 x403 x410 x411 x412 x413 x420 x421 x422 
x423 x430 x431 x432 x433 x450 x451 x452 x453 x460 x461 x462 x463 x470 x471 x472 x473 x500 x501 x502 x503 x510 x511 x512 x513 x520 x521 x522 x523 x530 x531 x532 x533 x540 x541 x542 x543 x560 x561 x562 x563 
x570 x571 x572 x573 x600 x601 x602 x603 x610 x611 x612 x613 x620 x621 x622 x623 x630 x631 x632 x633 x640 x641 x642 x643 x650 x651 x652 x653 x670 x671 x672 x673 x700 x701 x702 x703 x710 x711 x712 x713 x720 
x721 x722 x723 x730 x731 x732 x733 x740 x741 x742 x743 x750 x751 x752 x753 x760 x761 x762 x763 
END